146
1000
450
244
443
35
184
291
123
48
15
183
59
90
329
265
323
108
271
14
500
280
24
327
259
129
170
479
44
66
492
101
456
123
281
79
365
91
500
394
189
177
143
291
253
290
213
40
105
42
215
331
297
70
180
448
361
345
14
368
137
336
315
398
128
63
189
18
493
77
36
77
123
76
1
93
409
80
44
83
155
244
287
13
91
190
18
143
103
119
296
14
198
305
273
357
228
197
214
39
338
256
411
148
29
390
148
186
53
27
463
103
495
296
207
175
123
260
90
158
57
32
303
328
13
74
299
388
455
199
273
44
276
225
155
269
106
446
188
292
19
34
151
433
135
317
114
352
